;; Mutation-Based Equivalence Benchmark
;; Source:     AutomatArk / instance00719.smt2
;; Mutations:  literal_char_inc
;; Status:     sat
;;
;; Original regex vs mutated regex
;; Equivalence check: unsat ⟺ L(R1) = L(R2)

(set-info :smt-lib-version 2.6)
(set-info :category "mutation")
(set-info :status sat)
(set-logic QF_S)


;; R1: original
;; R2: mutated (literal_char_inc)
(assert
  (not
    (=
      (re.++ (str.to_re "Host:") (re.* re.allchar) (str.to_re "User-Agent:") (re.union (str.to_re " ") (str.to_re "\u{9}") (str.to_re "\u{a}") (str.to_re "\u{c}") (str.to_re "\u{d}")) (str.to_re "Request\u{a}"))
      (re.++ (str.to_re "Host:") (re.* re.allchar) (str.to_re "User-Agent;") (re.union (str.to_re " ") (str.to_re "\u{9}") (str.to_re "\u{a}") (str.to_re "\u{c}") (str.to_re "\u{d}")) (str.to_re "Request\u{a}")))))

(check-sat)
(exit)
